!   File created by the GAMESS Input Deck Generator Plugin for Avogadro
 $BASIS GBASIS=STO NGAUSS=3 $END
 $CONTRL SCFTYP=RHF RUNTYP=ENERGY $END

 $DATA 
Title
C1
C     6.0    -0.77032     0.99510     0.17045
C     6.0    -1.26230    -0.14424    -0.72232
C     6.0    -0.51034    -1.33026    -0.14931
C     6.0     0.69352     0.61942     0.39186
C     6.0     0.83181    -0.69209     0.05418
C     6.0     2.14840    -1.32788    -0.30633
H     1.0    -1.32338     0.97310     1.13417
H     1.0    -0.91340     1.98380    -0.31467
H     1.0    -0.88177     0.03059    -1.75644
H     1.0    -2.36631    -0.25490    -0.76749
H     1.0    -0.50972    -2.23088    -0.79880
H     1.0    -0.95666    -1.58052     0.83939
H     1.0     1.56504     1.28275     0.22968
H     1.0     1.99235    -2.37739    -0.63189
H     1.0     2.83532    -1.32139     0.56537
H     1.0     2.61972    -0.76304    -1.13775
B     5.0     0.98959     0.73020     2.44688
H     1.0     1.00467    -1.19943     1.98923
H     1.0     0.08407     1.10706     3.10842
H     1.0     2.03681     1.22559     2.69351
 $END
