!File created by the GAMESS Input Deck Generator Plugin for Avogadro
 $BASIS GBASIS=STO NGAUSS=3 $END
 $CONTRL SCFTYP=RHF RUNTYP=SADPOINT NZVAR=1 mult=1  ICHARG=0 $END
 $STATPT hssend=.t. OPTTOL=0.0005 NSTEP=50 $END
 $STATPT HESS=calc ihrep=5 $END
 $FORCE nvib=2 $END
 $ZMAT DLC=.t. auto=.t. nonvdw(1)=4,17,17,18,5,18,4,5 $END
!$ZMAT IFZMAT(1)=1,4,17,1,17,18,1,5,18 fvalue(1)=2.08,1.98,2.01 $END}

 $DATA 
Title
C1
C     6.0    -0.76250023     1.16050100    -0.07108475
C     6.0    -1.37238848    -0.17241277    -0.58331919
C     6.0    -0.46503943    -1.29773915    -0.01880602
C     6.0     0.68755406     0.79927915     0.25329399
C     6.0     0.88744372    -0.59890342     0.29892114
C     6.0     2.20630550    -1.21960402    -0.19002113
H     1.0    -1.30498445     1.53364253     0.79593503
H     1.0    -0.80205113     1.93442082    -0.83518660
H     1.0    -1.34364808    -0.19148450    -1.67018569
H     1.0    -2.40727830    -0.29878920    -0.27687001
H     1.0    -0.31096983    -2.09797144    -0.73918897
H     1.0    -0.90028012    -1.73568869     0.87438244
H     1.0     1.50171936     1.47773588     0.04456785
H     1.0     2.24719644    -2.28255248     0.02356290
H     1.0     3.05620146    -0.73293424     0.27867499
H     1.0     2.27832055    -1.07493472    -1.26704061
B     5.0     0.94615459     0.23016623     2.23713779
H     1.0     1.13969994    -1.71911860     1.94864380
H     1.0    -0.08470766     0.35303241     2.73799109
H     1.0     1.98945522     0.61076111     2.54651904
 $END
